DIMACS_lns/graph-1000-197.col
p edge 1000 1818
e 2 96
e 2 787
e 2 83
e 2 481
e 2 657
e 2 751
e 3 543
e 3 666
e 3 306
e 3 596
e 3 73
e 4 673
e 4 274
e 4 333
e 6 827
e 6 855
e 6 646
e 6 942
e 7 548
e 7 285
e 7 166
e 8 972
e 8 818
e 8 488
e 8 836
e 8 265
e 9 266
e 9 975
e 9 898
e 9 774
e 9 367
e 9 673
e 10 798
e 10 811
e 10 925
e 10 986
e 10 436
e 10 765
e 10 617
e 10 651
e 11 108
e 11 500
e 11 925
e 11 60
e 11 858
e 11 122
e 11 270
e 12 994
e 12 455
e 12 968
e 12 291
e 12 45
e 13 805
e 13 462
e 13 113
e 13 484
e 13 628
e 14 31
e 14 512
e 14 40
e 14 816
e 15 326
e 15 783
e 15 461
e 15 243
e 15 73
e 15 53
e 16 94
e 16 428
e 16 473
e 16 660
e 17 344
e 17 973
e 17 996
e 17 623
e 17 434
e 18 235
e 18 44
e 18 76
e 18 219
e 18 25
e 19 295
e 19 652
e 19 691
e 20 880
e 20 794
e 20 407
e 21 187
e 21 961
e 21 985
e 21 368
e 21 796
e 21 486
e 21 60
e 22 318
e 22 833
e 22 735
e 22 159
e 23 344
e 23 819
e 23 31
e 23 57
e 23 783
e 24 131
e 24 750
e 24 554
e 24 321
e 25 807
e 25 787
e 25 923
e 25 931
e 26 396
e 26 241
e 26 71
e 26 771
e 26 958
e 27 989
e 27 929
e 27 44
e 27 947
e 28 729
e 28 167
e 28 815
e 28 471
e 28 598
e 28 747
e 28 436
e 31 830
e 31 349
e 31 59
e 31 511
e 32 140
e 32 422
e 32 669
e 32 243
e 32 513
e 32 470
e 32 877
e 34 128
e 34 548
e 34 620
e 34 870
e 34 731
e 34 148
e 35 304
e 35 418
e 35 799
e 35 351
e 35 570
e 36 669
e 36 592
e 36 302
e 37 880
e 37 115
e 37 742
e 38 967
e 38 606
e 38 638
e 38 342
e 38 443
e 38 987
e 38 323
e 39 874
e 39 112
e 39 582
e 39 89
e 40 759
e 40 771
e 40 510
e 40 334
e 40 768
e 41 328
e 41 744
e 41 805
e 41 740
e 41 305
e 41 735
e 41 248
e 41 942
e 43 931
e 43 195
e 43 550
e 43 876
e 43 272
e 44 296
e 44 928
e 45 77
e 45 447
e 45 422
e 45 580
e 45 839
e 45 948
e 45 58
e 46 704
e 46 684
e 46 446
e 46 339
e 46 909
e 47 414
e 47 546
e 47 718
e 47 511
e 48 786
e 48 531
e 48 163
e 48 109
e 49 978
e 49 342
e 49 456
e 49 779
e 49 449
e 50 340
e 50 192
e 50 466
e 50 450
e 52 799
e 52 834
e 52 503
e 52 98
e 52 583
e 53 913
e 53 492
e 53 442
e 53 547
e 53 796
e 53 617
e 54 622
e 54 80
e 54 774
e 56 317
e 56 680
e 56 630
e 57 180
e 57 82
e 57 764
e 57 74
e 57 1000
e 57 743
e 58 594
e 58 660
e 59 956
e 59 186
e 59 538
e 59 255
e 59 98
e 60 811
e 60 796
e 60 531
e 60 769
e 60 127
e 61 390
e 61 699
e 61 836
e 61 121
e 62 561
e 62 436
e 62 505
e 62 849
e 64 404
e 64 271
e 64 499
e 64 907
e 67 126
e 67 947
e 67 311
e 67 989
e 67 850
e 67 519
e 67 800
e 68 625
e 68 941
e 68 800
e 70 105
e 70 808
e 70 218
e 71 442
e 71 449
e 71 852
e 71 222
e 71 684
e 72 909
e 72 652
e 72 938
e 72 189
e 73 340
e 73 849
e 74 165
e 74 503
e 74 545
e 74 927
e 74 253
e 76 744
e 76 520
e 77 616
e 77 111
e 77 346
e 77 167
e 77 420
e 78 409
e 78 330
e 78 891
e 80 138
e 80 141
e 80 923
e 80 570
e 80 172
e 80 711
e 80 984
e 82 636
e 82 633
e 82 776
e 82 792
e 83 586
e 83 634
e 83 630
e 83 614
e 83 264
e 83 902
e 83 858
e 84 705
e 84 466
e 84 228
e 84 636
e 84 969
e 84 522
e 85 245
e 85 319
e 85 550
e 85 635
e 85 864
e 85 225
e 85 475
e 85 964
e 85 437
e 85 515
e 88 166
e 88 471
e 88 263
e 88 183
e 88 409
e 88 480
e 89 592
e 89 326
e 90 806
e 90 949
e 90 272
e 91 234
e 91 672
e 91 522
e 91 408
e 91 861
e 91 519
e 91 367
e 91 195
e 93 901
e 93 646
e 93 217
e 94 503
e 94 174
e 94 570
e 94 664
e 94 849
e 94 827
e 96 504
e 96 1000
e 96 709
e 96 985
e 96 738
e 96 594
e 97 495
e 97 518
e 97 853
e 98 877
e 98 823
e 98 820
e 98 318
e 98 865
e 98 319
e 98 118
e 100 987
e 100 300
e 100 732
e 100 491
e 101 286
e 101 942
e 101 681
e 101 495
e 102 958
e 102 621
e 102 872
e 102 579
e 102 928
e 102 567
e 104 112
e 104 843
e 104 306
e 104 747
e 105 763
e 105 359
e 105 127
e 105 241
e 105 223
e 106 894
e 106 810
e 106 281
e 106 448
e 106 147
e 107 992
e 107 971
e 107 841
e 107 849
e 108 147
e 108 850
e 109 205
e 109 482
e 109 972
e 109 252
e 109 701
e 110 920
e 110 204
e 110 827
e 110 152
e 110 219
e 111 497
e 111 412
e 111 480
e 111 188
e 111 681
e 111 255
e 111 843
e 112 208
e 112 383
e 112 429
e 112 121
e 112 533
e 113 554
e 113 308
e 114 384
e 114 293
e 114 217
e 114 166
e 115 590
e 115 745
e 115 370
e 115 192
e 115 342
e 115 878
e 118 423
e 118 961
e 118 988
e 118 458
e 119 534
e 119 798
e 119 370
e 119 333
e 119 808
e 121 400
e 121 373
e 121 127
e 121 231
e 121 767
e 121 633
e 121 664
e 122 523
e 122 589
e 122 725
e 125 709
e 125 894
e 125 954
e 125 327
e 125 807
e 126 261
e 126 958
e 126 586
e 126 582
e 126 330
e 127 741
e 127 177
e 128 293
e 128 992
e 128 196
e 130 480
e 130 669
e 130 151
e 130 949
e 131 372
e 131 642
e 133 136
e 133 585
e 133 738
e 133 528
e 135 603
e 135 947
e 135 269
e 136 225
e 136 414
e 137 189
e 137 144
e 137 633
e 138 680
e 138 928
e 140 872
e 140 969
e 140 444
e 140 372
e 140 262
e 141 865
e 141 181
e 141 622
e 141 372
e 144 259
e 144 187
e 144 478
e 145 617
e 145 442
e 145 814
e 145 848
e 145 786
e 146 807
e 146 279
e 146 328
e 146 243
e 147 557
e 147 482
e 147 289
e 147 906
e 147 300
e 148 299
e 148 433
e 148 482
e 150 766
e 150 847
e 150 710
e 151 438
e 151 809
e 152 559
e 152 324
e 152 308
e 152 374
e 155 731
e 155 337
e 155 173
e 155 555
e 155 348
e 157 761
e 157 948
e 157 792
e 157 413
e 158 184
e 158 163
e 158 243
e 159 810
e 159 342
e 159 619
e 161 335
e 161 205
e 161 984
e 162 760
e 162 397
e 162 735
e 162 715
e 163 555
e 163 396
e 163 433
e 165 919
e 165 214
e 165 740
e 166 543
e 166 495
e 166 457
e 167 738
e 167 238
e 168 204
e 168 488
e 168 928
e 170 186
e 170 491
e 170 471
e 170 291
e 170 435
e 170 655
e 171 804
e 171 435
e 171 267
e 171 566
e 171 401
e 172 575
e 172 276
e 172 761
e 173 752
e 173 926
e 173 634
e 174 244
e 174 554
e 175 908
e 175 493
e 175 554
e 175 265
e 176 780
e 176 905
e 176 588
e 176 225
e 177 339
e 177 1000
e 177 318
e 177 715
e 177 565
e 180 831
e 180 476
e 180 830
e 180 305
e 180 866
e 181 627
e 181 844
e 181 673
e 181 537
e 181 435
e 181 496
e 183 506
e 183 975
e 183 351
e 183 473
e 183 989
e 183 483
e 184 294
e 184 281
e 184 417
e 184 615
e 184 995
e 185 401
e 185 980
e 185 896
e 185 569
e 185 293
e 186 526
e 187 230
e 187 635
e 188 722
e 188 852
e 188 208
e 188 648
e 188 234
e 189 378
e 189 468
e 189 650
e 189 209
e 189 442
e 189 405
e 192 413
e 192 478
e 192 491
e 194 313
e 194 958
e 194 878
e 195 687
e 196 444
e 196 234
e 196 520
e 197 940
e 197 768
e 197 882
e 198 669
e 198 278
e 198 252
e 201 985
e 201 505
e 201 931
e 201 865
e 204 973
e 204 876
e 205 685
e 205 578
e 206 461
e 206 889
e 206 357
e 206 598
e 207 719
e 207 256
e 207 227
e 208 561
e 208 723
e 208 339
e 208 648
e 208 952
e 209 519
e 209 628
e 209 836
e 209 238
e 209 517
e 209 703
e 214 386
e 214 352
e 215 821
e 215 595
e 215 769
e 215 475
e 215 565
e 215 262
e 217 258
e 217 434
e 218 816
e 218 742
e 218 279
e 219 239
e 221 703
e 221 980
e 221 792
e 221 288
e 221 530
e 221 554
e 221 543
e 221 317
e 222 532
e 222 454
e 222 616
e 222 608
e 223 327
e 223 515
e 223 312
e 223 743
e 223 770
e 224 517
e 224 646
e 224 819
e 224 395
e 224 567
e 225 547
e 225 299
e 225 608
e 225 346
e 227 568
e 227 669
e 227 675
e 227 731
e 228 973
e 228 530
e 228 305
e 228 492
e 228 274
e 230 340
e 230 617
e 230 871
e 231 457
e 231 458
e 233 497
e 233 852
e 233 631
e 234 315
e 234 753
e 234 710
e 235 871
e 235 308
e 235 543
e 238 528
e 238 842
e 238 982
e 238 313
e 238 881
e 238 575
e 238 733
e 238 635
e 239 318
e 239 484
e 239 698
e 239 271
e 239 759
e 241 486
e 241 494
e 241 630
e 242 654
e 242 253
e 242 514
e 242 543
e 242 522
e 242 784
e 243 480
e 243 276
e 243 315
e 244 598
e 244 443
e 244 399
e 244 592
e 245 675
e 245 373
e 248 983
e 248 876
e 248 711
e 252 498
e 252 414
e 252 669
e 252 650
e 253 400
e 253 479
e 253 395
e 253 692
e 255 351
e 255 411
e 255 959
e 255 452
e 255 770
e 255 761
e 256 592
e 256 702
e 256 454
e 257 354
e 257 507
e 257 302
e 257 550
e 257 442
e 257 756
e 258 359
e 258 798
e 258 789
e 259 500
e 259 429
e 259 772
e 260 886
e 260 753
e 260 289
e 260 479
e 260 963
e 261 633
e 261 716
e 261 617
e 262 633
e 263 566
e 263 901
e 264 583
e 264 652
e 264 618
e 265 805
e 265 477
e 266 805
e 266 774
e 266 492
e 266 414
e 266 661
e 266 391
e 267 771
e 267 354
e 267 340
e 267 776
e 269 291
e 269 939
e 269 929
e 269 357
e 269 789
e 269 523
e 270 969
e 270 498
e 270 494
e 270 495
e 270 469
e 271 457
e 271 423
e 271 616
e 272 429
e 274 647
e 274 434
e 274 723
e 276 773
e 276 684
e 276 899
e 276 297
e 276 858
e 276 763
e 278 505
e 278 485
e 278 478
e 279 834
e 279 363
e 281 842
e 281 677
e 282 375
e 282 715
e 282 897
e 282 363
e 282 766
e 282 315
e 285 747
e 285 724
e 285 493
e 285 792
e 285 979
e 285 288
e 286 661
e 286 323
e 287 438
e 287 554
e 287 499
e 288 429
e 288 500
e 288 739
e 289 736
e 289 954
e 290 435
e 290 637
e 290 518
e 290 833
e 291 557
e 291 357
e 293 925
e 293 603
e 293 418
e 293 855
e 293 783
e 294 711
e 294 586
e 294 445
e 294 471
e 294 696
e 295 959
e 295 638
e 295 981
e 296 621
e 296 589
e 296 938
e 297 888
e 297 795
e 297 879
e 297 568
e 297 569
e 297 709
e 297 436
e 297 507
e 297 710
e 297 764
e 299 555
e 299 420
e 299 685
e 300 901
e 302 673
e 302 328
e 304 628
e 304 559
e 304 691
e 305 729
e 305 847
e 306 727
e 306 479
e 306 597
e 307 519
e 307 476
e 307 482
e 308 778
e 311 322
e 311 735
e 311 789
e 312 792
e 312 905
e 312 474
e 312 933
e 312 934
e 313 753
e 315 411
e 317 530
e 318 772
e 319 375
e 321 954
e 321 717
e 321 397
e 321 899
e 322 593
e 322 840
e 322 487
e 323 471
e 323 429
e 323 483
e 323 851
e 324 615
e 324 732
e 326 601
e 327 458
e 328 796
e 328 830
e 328 729
e 330 902
e 330 719
e 330 525
e 330 496
e 331 954
e 331 616
e 331 969
e 331 790
e 332 698
e 332 741
e 332 409
e 332 975
e 332 410
e 333 673
e 333 397
e 334 993
e 334 743
e 334 443
e 334 927
e 334 575
e 334 518
e 334 674
e 335 692
e 335 992
e 335 450
e 335 774
e 337 630
e 337 739
e 337 876
e 337 821
e 337 934
e 338 919
e 338 901
e 338 341
e 338 457
e 338 664
e 338 613
e 338 780
e 340 806
e 340 799
e 340 615
e 340 844
e 341 898
e 341 673
e 341 940
e 341 493
e 341 864
e 342 765
e 342 676
e 343 878
e 343 967
e 343 978
e 344 844
e 344 495
e 345 492
e 345 919
e 345 565
e 346 718
e 348 810
e 348 710
e 348 699
e 349 453
e 349 808
e 349 940
e 349 679
e 349 933
e 350 995
e 350 751
e 350 870
e 350 672
e 351 530
e 352 456
e 352 705
e 352 701
e 354 596
e 355 885
e 355 431
e 355 763
e 357 407
e 357 743
e 357 920
e 357 839
e 357 804
e 359 717
e 359 993
e 359 496
e 360 882
e 360 697
e 360 608
e 360 790
e 360 852
e 361 365
e 361 518
e 361 958
e 361 949
e 361 680
e 361 714
e 361 592
e 361 443
e 363 725
e 363 870
e 363 632
e 363 370
e 363 572
e 365 837
e 365 843
e 365 726
e 365 986
e 365 500
e 365 893
e 367 523
e 367 837
e 367 476
e 368 741
e 368 961
e 369 913
e 369 830
e 369 374
e 370 631
e 370 943
e 370 612
e 372 874
e 373 518
e 374 801
e 374 455
e 374 943
e 375 426
e 375 561
e 378 660
e 378 823
e 378 760
e 378 905
e 381 469
e 381 821
e 381 460
e 381 809
e 383 784
e 383 877
e 383 778
e 383 743
e 384 726
e 384 854
e 385 787
e 385 744
e 385 501
e 385 761
e 386 393
e 386 827
e 389 434
e 389 956
e 389 593
e 390 931
e 390 904
e 390 763
e 391 581
e 391 817
e 391 659
e 393 702
e 393 463
e 393 941
e 395 697
e 395 996
e 396 657
e 396 666
e 396 918
e 396 970
e 397 750
e 397 588
e 399 402
e 399 426
e 399 608
e 399 814
e 400 848
e 401 921
e 401 916
e 401 588
e 401 613
e 401 761
e 402 618
e 402 594
e 404 657
e 404 655
e 405 759
e 405 861
e 405 433
e 405 717
e 407 625
e 407 799
e 407 635
e 407 638
e 407 771
e 408 559
e 408 734
e 409 952
e 410 579
e 410 594
e 410 642
e 410 692
e 410 979
e 410 625
e 410 847
e 410 886
e 411 818
e 411 776
e 411 972
e 412 948
e 412 959
e 412 927
e 412 827
e 412 865
e 413 517
e 414 757
e 415 437
e 415 796
e 415 801
e 415 995
e 417 496
e 417 695
e 417 949
e 418 952
e 418 838
e 418 897
e 418 712
e 420 659
e 422 693
e 422 548
e 422 789
e 422 790
e 423 901
e 426 973
e 426 674
e 426 455
e 426 808
e 426 438
e 428 666
e 428 820
e 428 543
e 429 622
e 430 583
e 430 702
e 430 628
e 431 499
e 431 447
e 433 756
e 433 540
e 433 895
e 435 847
e 435 724
e 436 917
e 437 585
e 437 995
e 437 979
e 437 598
e 437 926
e 437 841
e 438 827
e 439 697
e 439 474
e 439 893
e 439 443
e 439 969
e 442 534
e 442 729
e 443 492
e 443 727
e 443 590
e 444 618
e 445 808
e 445 570
e 445 896
e 445 971
e 446 814
e 446 488
e 447 827
e 448 614
e 448 620
e 448 655
e 448 538
e 448 517
e 449 491
e 449 692
e 449 791
e 449 484
e 450 696
e 451 639
e 451 520
e 451 891
e 451 703
e 452 976
e 452 687
e 453 568
e 453 572
e 454 980
e 455 969
e 456 889
e 457 799
e 457 767
e 457 956
e 457 687
e 458 528
e 458 486
e 460 892
e 460 616
e 461 972
e 461 784
e 462 567
e 462 916
e 463 555
e 463 513
e 463 834
e 466 635
e 466 824
e 467 477
e 467 758
e 467 979
e 467 985
e 468 972
e 468 555
e 469 907
e 469 592
e 469 474
e 470 490
e 470 910
e 471 743
e 473 734
e 473 723
e 474 836
e 475 968
e 476 871
e 476 718
e 476 692
e 477 697
e 477 491
e 477 772
e 477 608
e 478 971
e 478 652
e 478 534
e 479 840
e 480 719
e 480 722
e 480 942
e 481 807
e 481 517
e 482 804
e 482 497
e 483 979
e 484 881
e 484 488
e 484 963
e 484 648
e 485 511
e 485 764
e 486 498
e 486 651
e 486 767
e 486 855
e 486 588
e 487 760
e 487 710
e 490 710
e 490 630
e 492 635
e 492 967
e 492 856
e 494 981
e 496 885
e 496 703
e 497 623
e 497 826
e 498 608
e 499 626
e 499 994
e 500 578
e 500 735
e 500 515
e 501 794
e 501 994
e 503 736
e 503 504
e 504 805
e 505 984
e 505 612
e 505 608
e 506 961
e 506 754
e 507 603
e 507 636
e 507 759
e 507 826
e 507 593
e 507 517
e 507 540
e 510 763
e 510 971
e 510 949
e 511 703
e 512 519
e 512 684
e 512 900
e 512 902
e 513 692
e 513 773
e 513 726
e 513 898
e 514 714
e 514 610
e 515 636
e 515 827
e 516 693
e 516 838
e 516 538
e 516 546
e 516 761
e 517 947
e 517 919
e 517 938
e 518 815
e 518 984
e 520 582
e 522 872
e 522 861
e 523 745
e 525 673
e 525 972
e 526 619
e 526 791
e 528 594
e 528 983
e 528 773
e 529 881
e 529 639
e 529 920
e 530 972
e 530 588
e 530 848
e 531 907
e 532 843
e 532 568
e 532 710
e 533 886
e 533 704
e 533 798
e 534 585
e 534 631
e 534 537
e 537 618
e 538 908
e 538 715
e 538 684
e 538 783
e 540 559
e 540 856
e 541 995
e 541 637
e 541 919
e 541 928
e 543 816
e 543 920
e 545 842
e 545 687
e 546 595
e 547 995
e 548 988
e 548 666
e 551 909
e 551 643
e 551 985
e 553 703
e 553 761
e 553 841
e 553 936
e 553 661
e 554 767
e 554 849
e 554 770
e 555 738
e 555 899
e 556 885
e 556 681
e 556 858
e 557 909
e 557 674
e 557 806
e 559 943
e 559 841
e 561 643
e 562 586
e 562 614
e 562 896
e 562 993
e 563 940
e 563 969
e 563 939
e 565 615
e 565 719
e 566 850
e 566 898
e 566 800
e 566 885
e 566 851
e 567 815
e 567 929
e 567 653
e 568 920
e 568 664
e 569 774
e 569 691
e 569 949
e 570 862
e 570 837
e 572 976
e 572 940
e 572 907
e 575 632
e 575 979
e 575 942
e 578 698
e 579 586
e 579 769
e 580 613
e 580 830
e 580 774
e 581 926
e 581 636
e 582 623
e 583 590
e 583 731
e 583 986
e 585 638
e 585 773
e 585 703
e 586 589
e 588 983
e 588 750
e 589 673
e 591 939
e 591 906
e 591 895
e 591 910
e 592 909
e 592 846
e 593 744
e 593 929
e 594 864
e 594 679
e 595 597
e 596 873
e 596 758
e 596 732
e 597 655
e 597 886
e 597 702
e 598 866
e 601 970
e 601 698
e 603 941
e 603 933
e 603 995
e 606 985
e 606 619
e 610 677
e 610 964
e 610 824
e 610 621
e 612 757
e 613 751
e 614 971
e 614 642
e 615 741
e 616 712
e 616 895
e 616 693
e 618 675
e 618 902
e 619 827
e 619 798
e 620 888
e 620 856
e 622 837
e 622 840
e 622 795
e 623 979
e 626 877
e 626 772
e 626 954
e 626 878
e 627 664
e 627 679
e 627 757
e 628 692
e 630 653
e 631 734
e 631 679
e 632 646
e 632 633
e 633 756
e 633 867
e 634 844
e 634 705
e 635 717
e 635 934
e 636 940
e 636 718
e 637 719
e 637 688
e 638 923
e 638 820
e 639 771
e 639 716
e 641 809
e 641 727
e 641 738
e 642 892
e 642 675
e 643 647
e 644 773
e 644 877
e 644 968
e 644 995
e 646 679
e 646 856
e 646 826
e 647 818
e 648 681
e 648 852
e 650 756
e 650 995
e 651 880
e 652 972
e 652 852
e 653 701
e 653 723
e 654 867
e 654 920
e 655 819
e 655 920
e 657 783
e 659 918
e 659 736
e 660 853
e 661 958
e 664 704
e 664 754
e 664 795
e 664 959
e 666 754
e 666 978
e 672 851
e 672 768
e 674 963
e 674 763
e 676 921
e 676 933
e 677 778
e 677 898
e 680 816
e 681 688
e 684 850
e 685 800
e 687 851
e 688 879
e 688 854
e 688 897
e 691 844
e 691 895
e 692 908
e 692 701
e 693 840
e 693 866
e 695 970
e 695 831
e 696 876
e 697 750
e 698 854
e 698 833
e 699 972
e 703 811
e 705 789
e 705 983
e 710 856
e 711 783
e 711 981
e 711 969
e 711 905
e 712 880
e 714 842
e 714 804
e 716 976
e 717 754
e 717 783
e 717 967
e 719 943
e 722 905
e 722 752
e 722 971
e 724 736
e 725 742
e 726 800
e 727 940
e 727 996
e 729 800
e 731 978
e 732 964
e 732 942
e 732 929
e 733 984
e 733 903
e 733 988
e 733 794
e 735 978
e 735 963
e 736 916
e 738 961
e 738 818
e 739 786
e 740 904
e 741 761
e 742 767
e 742 826
e 742 982
e 743 756
e 743 903
e 744 943
e 745 827
e 747 916
e 751 904
e 752 798
e 753 770
e 757 981
e 758 906
e 758 921
e 758 873
e 759 861
e 759 867
e 759 766
e 763 897
e 763 996
e 763 850
e 764 853
e 764 906
e 765 856
e 765 926
e 766 925
e 767 940
e 770 780
e 771 982
e 772 942
e 772 865
e 773 800
e 773 824
e 773 806
e 773 936
e 773 971
e 774 972
e 774 903
e 774 971
e 774 981
e 776 867
e 776 909
e 778 833
e 779 989
e 779 873
e 779 981
e 780 996
e 783 843
e 787 964
e 789 831
e 791 807
e 791 908
e 792 794
e 792 889
e 795 874
e 796 843
e 801 988
e 801 836
e 814 817
e 815 939
e 817 917
e 818 852
e 819 880
e 820 944
e 820 896
e 821 928
e 823 942
e 827 916
e 827 917
e 830 986
e 833 879
e 836 927
e 837 862
e 838 888
e 839 879
e 841 882
e 842 891
e 843 880
e 843 847
e 844 909
e 846 910
e 846 897
e 849 889
e 850 861
e 850 966
e 853 947
e 854 971
e 858 913
e 861 966
e 862 878
e 872 981
e 873 892
e 874 993
e 876 898
e 878 954
e 880 900
e 880 939
e 881 954
e 886 900
e 892 944
e 893 894
e 893 906
e 895 938
e 899 918
e 899 940
e 903 927
e 904 943
e 904 936
e 907 956
e 909 967
e 910 975
e 910 929
e 925 966
e 928 984
e 940 985
e 942 979
e 944 948
e 954 966
e 968 982
e 971 985
e 980 996
e 983 1000
e 985 993
e 987 994
