txt_Ins/graph-1000-197.txt
n 1000
e 1 95
e 1 786
e 1 82
e 1 480
e 1 656
e 1 750
e 2 542
e 2 665
e 2 305
e 2 595
e 2 72
e 3 672
e 3 273
e 3 332
e 5 826
e 5 854
e 5 645
e 5 941
e 6 547
e 6 284
e 6 165
e 7 971
e 7 817
e 7 487
e 7 835
e 7 264
e 8 265
e 8 974
e 8 897
e 8 773
e 8 366
e 8 672
e 9 797
e 9 810
e 9 924
e 9 985
e 9 435
e 9 764
e 9 616
e 9 650
e 10 107
e 10 499
e 10 924
e 10 59
e 10 857
e 10 121
e 10 269
e 11 993
e 11 454
e 11 967
e 11 290
e 11 44
e 12 804
e 12 461
e 12 112
e 12 483
e 12 627
e 13 30
e 13 511
e 13 39
e 13 815
e 14 325
e 14 782
e 14 460
e 14 242
e 14 72
e 14 52
e 15 93
e 15 427
e 15 472
e 15 659
e 16 343
e 16 972
e 16 995
e 16 622
e 16 433
e 17 234
e 17 43
e 17 75
e 17 218
e 17 24
e 18 294
e 18 651
e 18 690
e 19 879
e 19 793
e 19 406
e 20 186
e 20 960
e 20 984
e 20 367
e 20 795
e 20 485
e 20 59
e 21 317
e 21 832
e 21 734
e 21 158
e 22 343
e 22 818
e 22 30
e 22 56
e 22 782
e 23 130
e 23 749
e 23 553
e 23 320
e 24 806
e 24 786
e 24 922
e 24 930
e 25 395
e 25 240
e 25 70
e 25 770
e 25 957
e 26 988
e 26 928
e 26 43
e 26 946
e 27 728
e 27 166
e 27 814
e 27 470
e 27 597
e 27 746
e 27 435
e 30 829
e 30 348
e 30 58
e 30 510
e 31 139
e 31 421
e 31 668
e 31 242
e 31 512
e 31 469
e 31 876
e 33 127
e 33 547
e 33 619
e 33 869
e 33 730
e 33 147
e 34 303
e 34 417
e 34 798
e 34 350
e 34 569
e 35 668
e 35 591
e 35 301
e 36 879
e 36 114
e 36 741
e 37 966
e 37 605
e 37 637
e 37 341
e 37 442
e 37 986
e 37 322
e 38 873
e 38 111
e 38 581
e 38 88
e 39 758
e 39 770
e 39 509
e 39 333
e 39 767
e 40 327
e 40 743
e 40 804
e 40 739
e 40 304
e 40 734
e 40 247
e 40 941
e 42 930
e 42 194
e 42 549
e 42 875
e 42 271
e 43 295
e 43 927
e 44 76
e 44 446
e 44 421
e 44 579
e 44 838
e 44 947
e 44 57
e 45 703
e 45 683
e 45 445
e 45 338
e 45 908
e 46 413
e 46 545
e 46 717
e 46 510
e 47 785
e 47 530
e 47 162
e 47 108
e 48 977
e 48 341
e 48 455
e 48 778
e 48 448
e 49 339
e 49 191
e 49 465
e 49 449
e 51 798
e 51 833
e 51 502
e 51 97
e 51 582
e 52 912
e 52 491
e 52 441
e 52 546
e 52 795
e 52 616
e 53 621
e 53 79
e 53 773
e 55 316
e 55 679
e 55 629
e 56 179
e 56 81
e 56 763
e 56 73
e 56 999
e 56 742
e 57 593
e 57 659
e 58 955
e 58 185
e 58 537
e 58 254
e 58 97
e 59 810
e 59 795
e 59 530
e 59 768
e 59 126
e 60 389
e 60 698
e 60 835
e 60 120
e 61 560
e 61 435
e 61 504
e 61 848
e 63 403
e 63 270
e 63 498
e 63 906
e 66 125
e 66 946
e 66 310
e 66 988
e 66 849
e 66 518
e 66 799
e 67 624
e 67 940
e 67 799
e 69 104
e 69 807
e 69 217
e 70 441
e 70 448
e 70 851
e 70 221
e 70 683
e 71 908
e 71 651
e 71 937
e 71 188
e 72 339
e 72 848
e 73 164
e 73 502
e 73 544
e 73 926
e 73 252
e 75 743
e 75 519
e 76 615
e 76 110
e 76 345
e 76 166
e 76 419
e 77 408
e 77 329
e 77 890
e 79 137
e 79 140
e 79 922
e 79 569
e 79 171
e 79 710
e 79 983
e 81 635
e 81 632
e 81 775
e 81 791
e 82 585
e 82 633
e 82 629
e 82 613
e 82 263
e 82 901
e 82 857
e 83 704
e 83 465
e 83 227
e 83 635
e 83 968
e 83 521
e 84 244
e 84 318
e 84 549
e 84 634
e 84 863
e 84 224
e 84 474
e 84 963
e 84 436
e 84 514
e 87 165
e 87 470
e 87 262
e 87 182
e 87 408
e 87 479
e 88 591
e 88 325
e 89 805
e 89 948
e 89 271
e 90 233
e 90 671
e 90 521
e 90 407
e 90 860
e 90 518
e 90 366
e 90 194
e 92 900
e 92 645
e 92 216
e 93 502
e 93 173
e 93 569
e 93 663
e 93 848
e 93 826
e 95 503
e 95 999
e 95 708
e 95 984
e 95 737
e 95 593
e 96 494
e 96 517
e 96 852
e 97 876
e 97 822
e 97 819
e 97 317
e 97 864
e 97 318
e 97 117
e 99 986
e 99 299
e 99 731
e 99 490
e 100 285
e 100 941
e 100 680
e 100 494
e 101 957
e 101 620
e 101 871
e 101 578
e 101 927
e 101 566
e 103 111
e 103 842
e 103 305
e 103 746
e 104 762
e 104 358
e 104 126
e 104 240
e 104 222
e 105 893
e 105 809
e 105 280
e 105 447
e 105 146
e 106 991
e 106 970
e 106 840
e 106 848
e 107 146
e 107 849
e 108 204
e 108 481
e 108 971
e 108 251
e 108 700
e 109 919
e 109 203
e 109 826
e 109 151
e 109 218
e 110 496
e 110 411
e 110 479
e 110 187
e 110 680
e 110 254
e 110 842
e 111 207
e 111 382
e 111 428
e 111 120
e 111 532
e 112 553
e 112 307
e 113 383
e 113 292
e 113 216
e 113 165
e 114 589
e 114 744
e 114 369
e 114 191
e 114 341
e 114 877
e 117 422
e 117 960
e 117 987
e 117 457
e 118 533
e 118 797
e 118 369
e 118 332
e 118 807
e 120 399
e 120 372
e 120 126
e 120 230
e 120 766
e 120 632
e 120 663
e 121 522
e 121 588
e 121 724
e 124 708
e 124 893
e 124 953
e 124 326
e 124 806
e 125 260
e 125 957
e 125 585
e 125 581
e 125 329
e 126 740
e 126 176
e 127 292
e 127 991
e 127 195
e 129 479
e 129 668
e 129 150
e 129 948
e 130 371
e 130 641
e 132 135
e 132 584
e 132 737
e 132 527
e 134 602
e 134 946
e 134 268
e 135 224
e 135 413
e 136 188
e 136 143
e 136 632
e 137 679
e 137 927
e 139 871
e 139 968
e 139 443
e 139 371
e 139 261
e 140 864
e 140 180
e 140 621
e 140 371
e 143 258
e 143 186
e 143 477
e 144 616
e 144 441
e 144 813
e 144 847
e 144 785
e 145 806
e 145 278
e 145 327
e 145 242
e 146 556
e 146 481
e 146 288
e 146 905
e 146 299
e 147 298
e 147 432
e 147 481
e 149 765
e 149 846
e 149 709
e 150 437
e 150 808
e 151 558
e 151 323
e 151 307
e 151 373
e 154 730
e 154 336
e 154 172
e 154 554
e 154 347
e 156 760
e 156 947
e 156 791
e 156 412
e 157 183
e 157 162
e 157 242
e 158 809
e 158 341
e 158 618
e 160 334
e 160 204
e 160 983
e 161 759
e 161 396
e 161 734
e 161 714
e 162 554
e 162 395
e 162 432
e 164 918
e 164 213
e 164 739
e 165 542
e 165 494
e 165 456
e 166 737
e 166 237
e 167 203
e 167 487
e 167 927
e 169 185
e 169 490
e 169 470
e 169 290
e 169 434
e 169 654
e 170 803
e 170 434
e 170 266
e 170 565
e 170 400
e 171 574
e 171 275
e 171 760
e 172 751
e 172 925
e 172 633
e 173 243
e 173 553
e 174 907
e 174 492
e 174 553
e 174 264
e 175 779
e 175 904
e 175 587
e 175 224
e 176 338
e 176 999
e 176 317
e 176 714
e 176 564
e 179 830
e 179 475
e 179 829
e 179 304
e 179 865
e 180 626
e 180 843
e 180 672
e 180 536
e 180 434
e 180 495
e 182 505
e 182 974
e 182 350
e 182 472
e 182 988
e 182 482
e 183 293
e 183 280
e 183 416
e 183 614
e 183 994
e 184 400
e 184 979
e 184 895
e 184 568
e 184 292
e 185 525
e 186 229
e 186 634
e 187 721
e 187 851
e 187 207
e 187 647
e 187 233
e 188 377
e 188 467
e 188 649
e 188 208
e 188 441
e 188 404
e 191 412
e 191 477
e 191 490
e 193 312
e 193 957
e 193 877
e 194 686
e 195 443
e 195 233
e 195 519
e 196 939
e 196 767
e 196 881
e 197 668
e 197 277
e 197 251
e 200 984
e 200 504
e 200 930
e 200 864
e 203 972
e 203 875
e 204 684
e 204 577
e 205 460
e 205 888
e 205 356
e 205 597
e 206 718
e 206 255
e 206 226
e 207 560
e 207 722
e 207 338
e 207 647
e 207 951
e 208 518
e 208 627
e 208 835
e 208 237
e 208 516
e 208 702
e 213 385
e 213 351
e 214 820
e 214 594
e 214 768
e 214 474
e 214 564
e 214 261
e 216 257
e 216 433
e 217 815
e 217 741
e 217 278
e 218 238
e 220 702
e 220 979
e 220 791
e 220 287
e 220 529
e 220 553
e 220 542
e 220 316
e 221 531
e 221 453
e 221 615
e 221 607
e 222 326
e 222 514
e 222 311
e 222 742
e 222 769
e 223 516
e 223 645
e 223 818
e 223 394
e 223 566
e 224 546
e 224 298
e 224 607
e 224 345
e 226 567
e 226 668
e 226 674
e 226 730
e 227 972
e 227 529
e 227 304
e 227 491
e 227 273
e 229 339
e 229 616
e 229 870
e 230 456
e 230 457
e 232 496
e 232 851
e 232 630
e 233 314
e 233 752
e 233 709
e 234 870
e 234 307
e 234 542
e 237 527
e 237 841
e 237 981
e 237 312
e 237 880
e 237 574
e 237 732
e 237 634
e 238 317
e 238 483
e 238 697
e 238 270
e 238 758
e 240 485
e 240 493
e 240 629
e 241 653
e 241 252
e 241 513
e 241 542
e 241 521
e 241 783
e 242 479
e 242 275
e 242 314
e 243 597
e 243 442
e 243 398
e 243 591
e 244 674
e 244 372
e 247 982
e 247 875
e 247 710
e 251 497
e 251 413
e 251 668
e 251 649
e 252 399
e 252 478
e 252 394
e 252 691
e 254 350
e 254 410
e 254 958
e 254 451
e 254 769
e 254 760
e 255 591
e 255 701
e 255 453
e 256 353
e 256 506
e 256 301
e 256 549
e 256 441
e 256 755
e 257 358
e 257 797
e 257 788
e 258 499
e 258 428
e 258 771
e 259 885
e 259 752
e 259 288
e 259 478
e 259 962
e 260 632
e 260 715
e 260 616
e 261 632
e 262 565
e 262 900
e 263 582
e 263 651
e 263 617
e 264 804
e 264 476
e 265 804
e 265 773
e 265 491
e 265 413
e 265 660
e 265 390
e 266 770
e 266 353
e 266 339
e 266 775
e 268 290
e 268 938
e 268 928
e 268 356
e 268 788
e 268 522
e 269 968
e 269 497
e 269 493
e 269 494
e 269 468
e 270 456
e 270 422
e 270 615
e 271 428
e 273 646
e 273 433
e 273 722
e 275 772
e 275 683
e 275 898
e 275 296
e 275 857
e 275 762
e 277 504
e 277 484
e 277 477
e 278 833
e 278 362
e 280 841
e 280 676
e 281 374
e 281 714
e 281 896
e 281 362
e 281 765
e 281 314
e 284 746
e 284 723
e 284 492
e 284 791
e 284 978
e 284 287
e 285 660
e 285 322
e 286 437
e 286 553
e 286 498
e 287 428
e 287 499
e 287 738
e 288 735
e 288 953
e 289 434
e 289 636
e 289 517
e 289 832
e 290 556
e 290 356
e 292 924
e 292 602
e 292 417
e 292 854
e 292 782
e 293 710
e 293 585
e 293 444
e 293 470
e 293 695
e 294 958
e 294 637
e 294 980
e 295 620
e 295 588
e 295 937
e 296 887
e 296 794
e 296 878
e 296 567
e 296 568
e 296 708
e 296 435
e 296 506
e 296 709
e 296 763
e 298 554
e 298 419
e 298 684
e 299 900
e 301 672
e 301 327
e 303 627
e 303 558
e 303 690
e 304 728
e 304 846
e 305 726
e 305 478
e 305 596
e 306 518
e 306 475
e 306 481
e 307 777
e 310 321
e 310 734
e 310 788
e 311 791
e 311 904
e 311 473
e 311 932
e 311 933
e 312 752
e 314 410
e 316 529
e 317 771
e 318 374
e 320 953
e 320 716
e 320 396
e 320 898
e 321 592
e 321 839
e 321 486
e 322 470
e 322 428
e 322 482
e 322 850
e 323 614
e 323 731
e 325 600
e 326 457
e 327 795
e 327 829
e 327 728
e 329 901
e 329 718
e 329 524
e 329 495
e 330 953
e 330 615
e 330 968
e 330 789
e 331 697
e 331 740
e 331 408
e 331 974
e 331 409
e 332 672
e 332 396
e 333 992
e 333 742
e 333 442
e 333 926
e 333 574
e 333 517
e 333 673
e 334 691
e 334 991
e 334 449
e 334 773
e 336 629
e 336 738
e 336 875
e 336 820
e 336 933
e 337 918
e 337 900
e 337 340
e 337 456
e 337 663
e 337 612
e 337 779
e 339 805
e 339 798
e 339 614
e 339 843
e 340 897
e 340 672
e 340 939
e 340 492
e 340 863
e 341 764
e 341 675
e 342 877
e 342 966
e 342 977
e 343 843
e 343 494
e 344 491
e 344 918
e 344 564
e 345 717
e 347 809
e 347 709
e 347 698
e 348 452
e 348 807
e 348 939
e 348 678
e 348 932
e 349 994
e 349 750
e 349 869
e 349 671
e 350 529
e 351 455
e 351 704
e 351 700
e 353 595
e 354 884
e 354 430
e 354 762
e 356 406
e 356 742
e 356 919
e 356 838
e 356 803
e 358 716
e 358 992
e 358 495
e 359 881
e 359 696
e 359 607
e 359 789
e 359 851
e 360 364
e 360 517
e 360 957
e 360 948
e 360 679
e 360 713
e 360 591
e 360 442
e 362 724
e 362 869
e 362 631
e 362 369
e 362 571
e 364 836
e 364 842
e 364 725
e 364 985
e 364 499
e 364 892
e 366 522
e 366 836
e 366 475
e 367 740
e 367 960
e 368 912
e 368 829
e 368 373
e 369 630
e 369 942
e 369 611
e 371 873
e 372 517
e 373 800
e 373 454
e 373 942
e 374 425
e 374 560
e 377 659
e 377 822
e 377 759
e 377 904
e 380 468
e 380 820
e 380 459
e 380 808
e 382 783
e 382 876
e 382 777
e 382 742
e 383 725
e 383 853
e 384 786
e 384 743
e 384 500
e 384 760
e 385 392
e 385 826
e 388 433
e 388 955
e 388 592
e 389 930
e 389 903
e 389 762
e 390 580
e 390 816
e 390 658
e 392 701
e 392 462
e 392 940
e 394 696
e 394 995
e 395 656
e 395 665
e 395 917
e 395 969
e 396 749
e 396 587
e 398 401
e 398 425
e 398 607
e 398 813
e 399 847
e 400 920
e 400 915
e 400 587
e 400 612
e 400 760
e 401 617
e 401 593
e 403 656
e 403 654
e 404 758
e 404 860
e 404 432
e 404 716
e 406 624
e 406 798
e 406 634
e 406 637
e 406 770
e 407 558
e 407 733
e 408 951
e 409 578
e 409 593
e 409 641
e 409 691
e 409 978
e 409 624
e 409 846
e 409 885
e 410 817
e 410 775
e 410 971
e 411 947
e 411 958
e 411 926
e 411 826
e 411 864
e 412 516
e 413 756
e 414 436
e 414 795
e 414 800
e 414 994
e 416 495
e 416 694
e 416 948
e 417 951
e 417 837
e 417 896
e 417 711
e 419 658
e 421 692
e 421 547
e 421 788
e 421 789
e 422 900
e 425 972
e 425 673
e 425 454
e 425 807
e 425 437
e 427 665
e 427 819
e 427 542
e 428 621
e 429 582
e 429 701
e 429 627
e 430 498
e 430 446
e 432 755
e 432 539
e 432 894
e 434 846
e 434 723
e 435 916
e 436 584
e 436 994
e 436 978
e 436 597
e 436 925
e 436 840
e 437 826
e 438 696
e 438 473
e 438 892
e 438 442
e 438 968
e 441 533
e 441 728
e 442 491
e 442 726
e 442 589
e 443 617
e 444 807
e 444 569
e 444 895
e 444 970
e 445 813
e 445 487
e 446 826
e 447 613
e 447 619
e 447 654
e 447 537
e 447 516
e 448 490
e 448 691
e 448 790
e 448 483
e 449 695
e 450 638
e 450 519
e 450 890
e 450 702
e 451 975
e 451 686
e 452 567
e 452 571
e 453 979
e 454 968
e 455 888
e 456 798
e 456 766
e 456 955
e 456 686
e 457 527
e 457 485
e 459 891
e 459 615
e 460 971
e 460 783
e 461 566
e 461 915
e 462 554
e 462 512
e 462 833
e 465 634
e 465 823
e 466 476
e 466 757
e 466 978
e 466 984
e 467 971
e 467 554
e 468 906
e 468 591
e 468 473
e 469 489
e 469 909
e 470 742
e 472 733
e 472 722
e 473 835
e 474 967
e 475 870
e 475 717
e 475 691
e 476 696
e 476 490
e 476 771
e 476 607
e 477 970
e 477 651
e 477 533
e 478 839
e 479 718
e 479 721
e 479 941
e 480 806
e 480 516
e 481 803
e 481 496
e 482 978
e 483 880
e 483 487
e 483 962
e 483 647
e 484 510
e 484 763
e 485 497
e 485 650
e 485 766
e 485 854
e 485 587
e 486 759
e 486 709
e 489 709
e 489 629
e 491 634
e 491 966
e 491 855
e 493 980
e 495 884
e 495 702
e 496 622
e 496 825
e 497 607
e 498 625
e 498 993
e 499 577
e 499 734
e 499 514
e 500 793
e 500 993
e 502 735
e 502 503
e 503 804
e 504 983
e 504 611
e 504 607
e 505 960
e 505 753
e 506 602
e 506 635
e 506 758
e 506 825
e 506 592
e 506 516
e 506 539
e 509 762
e 509 970
e 509 948
e 510 702
e 511 518
e 511 683
e 511 899
e 511 901
e 512 691
e 512 772
e 512 725
e 512 897
e 513 713
e 513 609
e 514 635
e 514 826
e 515 692
e 515 837
e 515 537
e 515 545
e 515 760
e 516 946
e 516 918
e 516 937
e 517 814
e 517 983
e 519 581
e 521 871
e 521 860
e 522 744
e 524 672
e 524 971
e 525 618
e 525 790
e 527 593
e 527 982
e 527 772
e 528 880
e 528 638
e 528 919
e 529 971
e 529 587
e 529 847
e 530 906
e 531 842
e 531 567
e 531 709
e 532 885
e 532 703
e 532 797
e 533 584
e 533 630
e 533 536
e 536 617
e 537 907
e 537 714
e 537 683
e 537 782
e 539 558
e 539 855
e 540 994
e 540 636
e 540 918
e 540 927
e 542 815
e 542 919
e 544 841
e 544 686
e 545 594
e 546 994
e 547 987
e 547 665
e 550 908
e 550 642
e 550 984
e 552 702
e 552 760
e 552 840
e 552 935
e 552 660
e 553 766
e 553 848
e 553 769
e 554 737
e 554 898
e 555 884
e 555 680
e 555 857
e 556 908
e 556 673
e 556 805
e 558 942
e 558 840
e 560 642
e 561 585
e 561 613
e 561 895
e 561 992
e 562 939
e 562 968
e 562 938
e 564 614
e 564 718
e 565 849
e 565 897
e 565 799
e 565 884
e 565 850
e 566 814
e 566 928
e 566 652
e 567 919
e 567 663
e 568 773
e 568 690
e 568 948
e 569 861
e 569 836
e 571 975
e 571 939
e 571 906
e 574 631
e 574 978
e 574 941
e 577 697
e 578 585
e 578 768
e 579 612
e 579 829
e 579 773
e 580 925
e 580 635
e 581 622
e 582 589
e 582 730
e 582 985
e 584 637
e 584 772
e 584 702
e 585 588
e 587 982
e 587 749
e 588 672
e 590 938
e 590 905
e 590 894
e 590 909
e 591 908
e 591 845
e 592 743
e 592 928
e 593 863
e 593 678
e 594 596
e 595 872
e 595 757
e 595 731
e 596 654
e 596 885
e 596 701
e 597 865
e 600 969
e 600 697
e 602 940
e 602 932
e 602 994
e 605 984
e 605 618
e 609 676
e 609 963
e 609 823
e 609 620
e 611 756
e 612 750
e 613 970
e 613 641
e 614 740
e 615 711
e 615 894
e 615 692
e 617 674
e 617 901
e 618 826
e 618 797
e 619 887
e 619 855
e 621 836
e 621 839
e 621 794
e 622 978
e 625 876
e 625 771
e 625 953
e 625 877
e 626 663
e 626 678
e 626 756
e 627 691
e 629 652
e 630 733
e 630 678
e 631 645
e 631 632
e 632 755
e 632 866
e 633 843
e 633 704
e 634 716
e 634 933
e 635 939
e 635 717
e 636 718
e 636 687
e 637 922
e 637 819
e 638 770
e 638 715
e 640 808
e 640 726
e 640 737
e 641 891
e 641 674
e 642 646
e 643 772
e 643 876
e 643 967
e 643 994
e 645 678
e 645 855
e 645 825
e 646 817
e 647 680
e 647 851
e 649 755
e 649 994
e 650 879
e 651 971
e 651 851
e 652 700
e 652 722
e 653 866
e 653 919
e 654 818
e 654 919
e 656 782
e 658 917
e 658 735
e 659 852
e 660 957
e 663 703
e 663 753
e 663 794
e 663 958
e 665 753
e 665 977
e 671 850
e 671 767
e 673 962
e 673 762
e 675 920
e 675 932
e 676 777
e 676 897
e 679 815
e 680 687
e 683 849
e 684 799
e 686 850
e 687 878
e 687 853
e 687 896
e 690 843
e 690 894
e 691 907
e 691 700
e 692 839
e 692 865
e 694 969
e 694 830
e 695 875
e 696 749
e 697 853
e 697 832
e 698 971
e 702 810
e 704 788
e 704 982
e 709 855
e 710 782
e 710 980
e 710 968
e 710 904
e 711 879
e 713 841
e 713 803
e 715 975
e 716 753
e 716 782
e 716 966
e 718 942
e 721 904
e 721 751
e 721 970
e 723 735
e 724 741
e 725 799
e 726 939
e 726 995
e 728 799
e 730 977
e 731 963
e 731 941
e 731 928
e 732 983
e 732 902
e 732 987
e 732 793
e 734 977
e 734 962
e 735 915
e 737 960
e 737 817
e 738 785
e 739 903
e 740 760
e 741 766
e 741 825
e 741 981
e 742 755
e 742 902
e 743 942
e 744 826
e 746 915
e 750 903
e 751 797
e 752 769
e 756 980
e 757 905
e 757 920
e 757 872
e 758 860
e 758 866
e 758 765
e 762 896
e 762 995
e 762 849
e 763 852
e 763 905
e 764 855
e 764 925
e 765 924
e 766 939
e 769 779
e 770 981
e 771 941
e 771 864
e 772 799
e 772 823
e 772 805
e 772 935
e 772 970
e 773 971
e 773 902
e 773 970
e 773 980
e 775 866
e 775 908
e 777 832
e 778 988
e 778 872
e 778 980
e 779 995
e 782 842
e 786 963
e 788 830
e 790 806
e 790 907
e 791 793
e 791 888
e 794 873
e 795 842
e 800 987
e 800 835
e 813 816
e 814 938
e 816 916
e 817 851
e 818 879
e 819 943
e 819 895
e 820 927
e 822 941
e 826 915
e 826 916
e 829 985
e 832 878
e 835 926
e 836 861
e 837 887
e 838 878
e 840 881
e 841 890
e 842 879
e 842 846
e 843 908
e 845 909
e 845 896
e 848 888
e 849 860
e 849 965
e 852 946
e 853 970
e 857 912
e 860 965
e 861 877
e 871 980
e 872 891
e 873 992
e 875 897
e 877 953
e 879 899
e 879 938
e 880 953
e 885 899
e 891 943
e 892 893
e 892 905
e 894 937
e 898 917
e 898 939
e 902 926
e 903 942
e 903 935
e 906 955
e 908 966
e 909 974
e 909 928
e 924 965
e 927 983
e 939 984
e 941 978
e 943 947
e 953 965
e 967 981
e 970 984
e 979 995
e 982 999
e 984 992
e 986 993
